457263903 -1 0
50834652 -2 0
310027625 3 0
549111097 4 0
432453106 4 0
63581686 -4 0
227854307 -5 0
327139805 -6 0
262203933 -7 0
65101156 -7 0
168439453 -8 0
1 2 0
441410847 9 0
184903045 -2 0
564758535 -10 0
256262969 11 0
1 -11 -12 0
